VertexID	Color
3	1
12	1
21	1
34	1
25	1
44	1
6	2
8	2
17	2
35	2
26	2
39	2
18	3
49	3
40	3
22	3
31	3
1	4
19	4
42	4
23	4
32	4
45	4
11	5
20	5
33	5
24	5
37	5
4	6
9	6
27	6
47	6
29	6
38	6
5	7
14	7
16	7
41	7
46	7
13	8
15	8
28	8
30	8
7	9
10	9
48	9
36	9
2	10
43	10
